10
0 47 43 71 98 17 9 65 16 28 
47 0 92 82 23 19 62 22 47 19 
43 92 0 64 21 79 88 11 55 53 
71 82 64 0 63 87 73 78 39 1 
98 23 21 63 0 79 3 70 88 9 
17 19 79 87 79 0 96 22 82 65 
9 62 88 73 3 96 0 35 84 10 
65 22 11 78 70 22 35 0 30 98 
16 47 55 39 88 82 84 30 0 8 
28 19 53 1 9 65 10 98 8 0 
RRBRBRBRBB
